Route 1: 1 3 45 6 8 7 46 4 5 2
Route 2: 42 43 39 37 38 41 35
Route 3: 12 47 15 11 9 10 13 16 17 14
Route 4: 20 21 23 48 19 49 22 18 25 24
Route 5: 36 44 40 31 34 50
Route 6: 33 27 30 32 28 26 29
Vehicles: 6
Distance: 792.12
